mixintcount/benchmarks/random_v2l/3_3_177.in
12 5
#	x1	x2	x3;		0 = Real; 1 = Integer
	1	1	1
1	1	4	3	-124
1	1	2	2	118
1	-5	-9	-3	-9
1	-10	1	6	143
1	-4	0	-7	-109
1	-3	-10	7	-47
1	1	0	0	177
1	-1	0	0	177
1	0	1	0	177
1	0	-1	0	177
1	0	0	1	177
1	0	0	-1	177
